% demand
num_movements = 39;
loading_factor = [1900, 950, 950, 1550, 850, 950, 800, 1650, 1000, 1750, 800, 1500, 1400, 2000, 1200, 1900, 1350, 1750, 1600, 1300, 1350, 1300, 1050, 1500, 1900, 2000, 1250, 950, 1300, 850, 1050, 1000, 1950, 1950, 1550, 1450, 950, 1150, 1250];
pickup_time = [0, 0, 0, 0, 0, 0, 0, 1, 1, 2, 2, 2, 2, 3, 4, 5, 5, 5, 5, 7, 7, 8, 8, 9, 9, 10, 11, 11, 11, 11, 11, 11, 12, 12, 12, 12, 12, 12, 12];
delivery_time = [2, 2, 2, 2, 2, 2, 2, 2, 2, 3, 4, 4, 4, 4, 5, 11, 8, 6, 8, 10, 10, 9, 9, 10, 10, 12, 12, 12, 12, 12, 12, 12, 14, 14, 14, 14, 14, 13, 14];

% transporter definition
total_capacity = 11000;
num_decks = 4;
capacity = [3000, 3000, 1000, 4000];

% ways out of decks
num_ways_out = 2;
paths_out = array3d(decks, ways_out, decks, [
% ways out of deck d1
2, 4, 0, 0, 3, 4, 0, 0, 

% ways out of deck d2
4, 0, 0, 0, 0, 0, 0, 0,	

% ways out of deck d3
4, 0, 0, 0, 0, 0, 0, 0,	

% ways out of deck d4
0, 0, 0, 0,	0, 0, 0, 0,	

]);

